model_4x4_7R_Start_r4_Meet_r1.lp
\ Model model_4x4_7R_Start_r4_Meet_r1
\ LP format - for model browsing. Use MPS format to capture full model detail.
Maximize
  0 Match_C0_u + 0 Match_C1_u + 0 Match_C2_u + 0 Match_C3_u + Obj
   + 0 R0SB_C0_u + 0 R0SB_C0_x + 0 R0SB_C0_y + 0 R0MC_C0_u + 0 R0MC_C0_x
   + 0 R0MC_C0_y + 0 R0SB_C1_u + 0 R0SB_C1_x + 0 R0SB_C1_y + 0 R0MC_C1_u
   + 0 R0MC_C1_x + 0 R0MC_C1_y + 0 R0SB_C2_u + 0 R0SB_C2_x + 0 R0SB_C2_y
   + 0 R0MC_C2_u + 0 R0MC_C2_x + 0 R0MC_C2_y + 0 R0SB_C3_u + 0 R0SB_C3_x
   + 0 R0SB_C3_y + 0 R0MC_C3_u + 0 R0MC_C3_x + 0 R0MC_C3_y + 0 R1SB_C0_u
   + 0 R1SB_C0_x + 0 R1SB_C0_y + 0 R1MC_C0_u + 0 R1MC_C0_x + 0 R1MC_C0_y
   + 0 R1SB_C1_u + 0 R1SB_C1_x + 0 R1SB_C1_y + 0 R1MC_C1_u + 0 R1MC_C1_x
   + 0 R1MC_C1_y + 0 R1SB_C2_u + 0 R1SB_C2_x + 0 R1SB_C2_y + 0 R1MC_C2_u
   + 0 R1MC_C2_x + 0 R1MC_C2_y + 0 R1SB_C3_u + 0 R1SB_C3_x + 0 R1SB_C3_y
   + 0 R1MC_C3_u + 0 R1MC_C3_x + 0 R1MC_C3_y + 0 R2SB_C0_u + 0 R2SB_C0_x
   + 0 R2SB_C0_y + 0 R2MC_C0_u + 0 R2MC_C0_x + 0 R2MC_C0_y + 0 R2SB_C1_u
   + 0 R2SB_C1_x + 0 R2SB_C1_y + 0 R2MC_C1_u + 0 R2MC_C1_x + 0 R2MC_C1_y
   + 0 R2SB_C2_u + 0 R2SB_C2_x + 0 R2SB_C2_y + 0 R2MC_C2_u + 0 R2MC_C2_x
   + 0 R2MC_C2_y + 0 R2SB_C3_u + 0 R2SB_C3_x + 0 R2SB_C3_y + 0 R2MC_C3_u
   + 0 R2MC_C3_x + 0 R2MC_C3_y + 0 R3MC_C0_u + 0 R3MC_C0_x + 0 R3MC_C0_y
   + 0 R3MC_C1_u + 0 R3MC_C1_x + 0 R3MC_C1_y + 0 R3MC_C2_u + 0 R3MC_C2_x
   + 0 R3MC_C2_y + 0 R3MC_C3_u + 0 R3MC_C3_x + 0 R3MC_C3_y + 0 R5SB_C0_u
   + 0 R5SB_C0_x + 0 R5SB_C0_y + 0 R5SB_C1_u + 0 R5SB_C1_x + 0 R5SB_C1_y
   + 0 R5SB_C2_u + 0 R5SB_C2_x + 0 R5SB_C2_y + 0 R5SB_C3_u + 0 R5SB_C3_x
   + 0 R5SB_C3_y + 0 R6SB_C0_u + 0 R6SB_C0_x + 0 R6SB_C0_y + 0 R6MC_C0_u
   + 0 R6MC_C0_x + 0 R6MC_C0_y + 0 R6SB_C1_u + 0 R6SB_C1_x + 0 R6SB_C1_y
   + 0 R6MC_C1_u + 0 R6MC_C1_x + 0 R6MC_C1_y + 0 R6SB_C2_u + 0 R6SB_C2_x
   + 0 R6SB_C2_y + 0 R6MC_C2_u + 0 R6MC_C2_x + 0 R6MC_C2_y + 0 R6SB_C3_u
   + 0 R6SB_C3_x + 0 R6SB_C3_y + 0 R6MC_C3_u + 0 R6MC_C3_x + 0 R6MC_C3_y
Subject To
 R0: R0[0,0]_b + R0[0,0]_r - R0[0,0]_g + R0[0,0]_w = 1
 R1: R0[0,1]_b + R0[0,1]_r - R0[0,1]_g + R0[0,1]_w = 1
 R2: R0[0,2]_b + R0[0,2]_r - R0[0,2]_g + R0[0,2]_w = 1
 R3: R0[0,3]_b + R0[0,3]_r - R0[0,3]_g + R0[0,3]_w = 1
 R4: R0[1,0]_b + R0[1,0]_r - R0[1,0]_g + R0[1,0]_w = 1
 R5: R0[1,1]_b + R0[1,1]_r - R0[1,1]_g + R0[1,1]_w = 1
 R6: R0[1,2]_b + R0[1,2]_r - R0[1,2]_g + R0[1,2]_w = 1
 R7: R0[1,3]_b + R0[1,3]_r - R0[1,3]_g + R0[1,3]_w = 1
 R8: R0[2,0]_b + R0[2,0]_r - R0[2,0]_g + R0[2,0]_w = 1
 R9: R0[2,1]_b + R0[2,1]_r - R0[2,1]_g + R0[2,1]_w = 1
 R10: R0[2,2]_b + R0[2,2]_r - R0[2,2]_g + R0[2,2]_w = 1
 R11: R0[2,3]_b + R0[2,3]_r - R0[2,3]_g + R0[2,3]_w = 1
 R12: R0[3,0]_b + R0[3,0]_r - R0[3,0]_g + R0[3,0]_w = 1
 R13: R0[3,1]_b + R0[3,1]_r - R0[3,1]_g + R0[3,1]_w = 1
 R14: R0[3,2]_b + R0[3,2]_r - R0[3,2]_g + R0[3,2]_w = 1
 R15: R0[3,3]_b + R0[3,3]_r - R0[3,3]_g + R0[3,3]_w = 1
 R16: R1[0,0]_b + R1[0,0]_r - R1[0,0]_g + R1[0,0]_w = 1
 R17: R1[0,1]_b + R1[0,1]_r - R1[0,1]_g + R1[0,1]_w = 1
 R18: R1[0,2]_b + R1[0,2]_r - R1[0,2]_g + R1[0,2]_w = 1
 R19: R1[0,3]_b + R1[0,3]_r - R1[0,3]_g + R1[0,3]_w = 1
 R20: R1[1,0]_b + R1[1,0]_r - R1[1,0]_g + R1[1,0]_w = 1
 R21: R1[1,1]_b + R1[1,1]_r - R1[1,1]_g + R1[1,1]_w = 1
 R22: R1[1,2]_b + R1[1,2]_r - R1[1,2]_g + R1[1,2]_w = 1
 R23: R1[1,3]_b + R1[1,3]_r - R1[1,3]_g + R1[1,3]_w = 1
 R24: R1[2,0]_b + R1[2,0]_r - R1[2,0]_g + R1[2,0]_w = 1
 R25: R1[2,1]_b + R1[2,1]_r - R1[2,1]_g + R1[2,1]_w = 1
 R26: R1[2,2]_b + R1[2,2]_r - R1[2,2]_g + R1[2,2]_w = 1
 R27: R1[2,3]_b + R1[2,3]_r - R1[2,3]_g + R1[2,3]_w = 1
 R28: R1[3,0]_b + R1[3,0]_r - R1[3,0]_g + R1[3,0]_w = 1
 R29: R1[3,1]_b + R1[3,1]_r - R1[3,1]_g + R1[3,1]_w = 1
 R30: R1[3,2]_b + R1[3,2]_r - R1[3,2]_g + R1[3,2]_w = 1
 R31: R1[3,3]_b + R1[3,3]_r - R1[3,3]_g + R1[3,3]_w = 1
 R32: R2[0,0]_b + R2[0,0]_r - R2[0,0]_g + R2[0,0]_w = 1
 R33: R2[0,1]_b + R2[0,1]_r - R2[0,1]_g + R2[0,1]_w = 1
 R34: R2[0,2]_b + R2[0,2]_r - R2[0,2]_g + R2[0,2]_w = 1
 R35: R2[0,3]_b + R2[0,3]_r - R2[0,3]_g + R2[0,3]_w = 1
 R36: R2[1,0]_b + R2[1,0]_r - R2[1,0]_g + R2[1,0]_w = 1
 R37: R2[1,1]_b + R2[1,1]_r - R2[1,1]_g + R2[1,1]_w = 1
 R38: R2[1,2]_b + R2[1,2]_r - R2[1,2]_g + R2[1,2]_w = 1
 R39: R2[1,3]_b + R2[1,3]_r - R2[1,3]_g + R2[1,3]_w = 1
 R40: R2[2,0]_b + R2[2,0]_r - R2[2,0]_g + R2[2,0]_w = 1
 R41: R2[2,1]_b + R2[2,1]_r - R2[2,1]_g + R2[2,1]_w = 1
 R42: R2[2,2]_b + R2[2,2]_r - R2[2,2]_g + R2[2,2]_w = 1
 R43: R2[2,3]_b + R2[2,3]_r - R2[2,3]_g + R2[2,3]_w = 1
 R44: R2[3,0]_b + R2[3,0]_r - R2[3,0]_g + R2[3,0]_w = 1
 R45: R2[3,1]_b + R2[3,1]_r - R2[3,1]_g + R2[3,1]_w = 1
 R46: R2[3,2]_b + R2[3,2]_r - R2[3,2]_g + R2[3,2]_w = 1
 R47: R2[3,3]_b + R2[3,3]_r - R2[3,3]_g + R2[3,3]_w = 1
 R48: R3[0,0]_b + R3[0,0]_r - R3[0,0]_g + R3[0,0]_w = 1
 R49: R3[0,1]_b + R3[0,1]_r - R3[0,1]_g + R3[0,1]_w = 1
 R50: R3[0,2]_b + R3[0,2]_r - R3[0,2]_g + R3[0,2]_w = 1
 R51: R3[0,3]_b + R3[0,3]_r - R3[0,3]_g + R3[0,3]_w = 1
 R52: R3[1,0]_b + R3[1,0]_r - R3[1,0]_g + R3[1,0]_w = 1
 R53: R3[1,1]_b + R3[1,1]_r - R3[1,1]_g + R3[1,1]_w = 1
 R54: R3[1,2]_b + R3[1,2]_r - R3[1,2]_g + R3[1,2]_w = 1
 R55: R3[1,3]_b + R3[1,3]_r - R3[1,3]_g + R3[1,3]_w = 1
 R56: R3[2,0]_b + R3[2,0]_r - R3[2,0]_g + R3[2,0]_w = 1
 R57: R3[2,1]_b + R3[2,1]_r - R3[2,1]_g + R3[2,1]_w = 1
 R58: R3[2,2]_b + R3[2,2]_r - R3[2,2]_g + R3[2,2]_w = 1
 R59: R3[2,3]_b + R3[2,3]_r - R3[2,3]_g + R3[2,3]_w = 1
 R60: R3[3,0]_b + R3[3,0]_r - R3[3,0]_g + R3[3,0]_w = 1
 R61: R3[3,1]_b + R3[3,1]_r - R3[3,1]_g + R3[3,1]_w = 1
 R62: R3[3,2]_b + R3[3,2]_r - R3[3,2]_g + R3[3,2]_w = 1
 R63: R3[3,3]_b + R3[3,3]_r - R3[3,3]_g + R3[3,3]_w = 1
 R64: R4[0,0]_b + R4[0,0]_r - R4[0,0]_g + R4[0,0]_w = 1
 R65: R4[0,1]_b + R4[0,1]_r - R4[0,1]_g + R4[0,1]_w = 1
 R66: R4[0,2]_b + R4[0,2]_r - R4[0,2]_g + R4[0,2]_w = 1
 R67: R4[0,3]_b + R4[0,3]_r - R4[0,3]_g + R4[0,3]_w = 1
 R68: R4[1,0]_b + R4[1,0]_r - R4[1,0]_g + R4[1,0]_w = 1
 R69: R4[1,1]_b + R4[1,1]_r - R4[1,1]_g + R4[1,1]_w = 1
 R70: R4[1,2]_b + R4[1,2]_r - R4[1,2]_g + R4[1,2]_w = 1
 R71: R4[1,3]_b + R4[1,3]_r - R4[1,3]_g + R4[1,3]_w = 1
 R72: R4[2,0]_b + R4[2,0]_r - R4[2,0]_g + R4[2,0]_w = 1
 R73: R4[2,1]_b + R4[2,1]_r - R4[2,1]_g + R4[2,1]_w = 1
 R74: R4[2,2]_b + R4[2,2]_r - R4[2,2]_g + R4[2,2]_w = 1
 R75: R4[2,3]_b + R4[2,3]_r - R4[2,3]_g + R4[2,3]_w = 1
 R76: R4[3,0]_b + R4[3,0]_r - R4[3,0]_g + R4[3,0]_w = 1
 R77: R4[3,1]_b + R4[3,1]_r - R4[3,1]_g + R4[3,1]_w = 1
 R78: R4[3,2]_b + R4[3,2]_r - R4[3,2]_g + R4[3,2]_w = 1
 R79: R4[3,3]_b + R4[3,3]_r - R4[3,3]_g + R4[3,3]_w = 1
 R80: R5[0,0]_b + R5[0,0]_r - R5[0,0]_g + R5[0,0]_w = 1
 R81: R5[0,1]_b + R5[0,1]_r - R5[0,1]_g + R5[0,1]_w = 1
 R82: R5[0,2]_b + R5[0,2]_r - R5[0,2]_g + R5[0,2]_w = 1
 R83: R5[0,3]_b + R5[0,3]_r - R5[0,3]_g + R5[0,3]_w = 1
 R84: R5[1,0]_b + R5[1,0]_r - R5[1,0]_g + R5[1,0]_w = 1
 R85: R5[1,1]_b + R5[1,1]_r - R5[1,1]_g + R5[1,1]_w = 1
 R86: R5[1,2]_b + R5[1,2]_r - R5[1,2]_g + R5[1,2]_w = 1
 R87: R5[1,3]_b + R5[1,3]_r - R5[1,3]_g + R5[1,3]_w = 1
 R88: R5[2,0]_b + R5[2,0]_r - R5[2,0]_g + R5[2,0]_w = 1
 R89: R5[2,1]_b + R5[2,1]_r - R5[2,1]_g + R5[2,1]_w = 1
 R90: R5[2,2]_b + R5[2,2]_r - R5[2,2]_g + R5[2,2]_w = 1
 R91: R5[2,3]_b + R5[2,3]_r - R5[2,3]_g + R5[2,3]_w = 1
 R92: R5[3,0]_b + R5[3,0]_r - R5[3,0]_g + R5[3,0]_w = 1
 R93: R5[3,1]_b + R5[3,1]_r - R5[3,1]_g + R5[3,1]_w = 1
 R94: R5[3,2]_b + R5[3,2]_r - R5[3,2]_g + R5[3,2]_w = 1
 R95: R5[3,3]_b + R5[3,3]_r - R5[3,3]_g + R5[3,3]_w = 1
 R96: R6[0,0]_b + R6[0,0]_r - R6[0,0]_g + R6[0,0]_w = 1
 R97: R6[0,1]_b + R6[0,1]_r - R6[0,1]_g + R6[0,1]_w = 1
 R98: R6[0,2]_b + R6[0,2]_r - R6[0,2]_g + R6[0,2]_w = 1
 R99: R6[0,3]_b + R6[0,3]_r - R6[0,3]_g + R6[0,3]_w = 1
 R100: R6[1,0]_b + R6[1,0]_r - R6[1,0]_g + R6[1,0]_w = 1
 R101: R6[1,1]_b + R6[1,1]_r - R6[1,1]_g + R6[1,1]_w = 1
 R102: R6[1,2]_b + R6[1,2]_r - R6[1,2]_g + R6[1,2]_w = 1
 R103: R6[1,3]_b + R6[1,3]_r - R6[1,3]_g + R6[1,3]_w = 1
 R104: R6[2,0]_b + R6[2,0]_r - R6[2,0]_g + R6[2,0]_w = 1
 R105: R6[2,1]_b + R6[2,1]_r - R6[2,1]_g + R6[2,1]_w = 1
 R106: R6[2,2]_b + R6[2,2]_r - R6[2,2]_g + R6[2,2]_w = 1
 R107: R6[2,3]_b + R6[2,3]_r - R6[2,3]_g + R6[2,3]_w = 1
 R108: R6[3,0]_b + R6[3,0]_r - R6[3,0]_g + R6[3,0]_w = 1
 R109: R6[3,1]_b + R6[3,1]_r - R6[3,1]_g + R6[3,1]_w = 1
 R110: R6[3,2]_b + R6[3,2]_r - R6[3,2]_g + R6[3,2]_w = 1
 R111: R6[3,3]_b + R6[3,3]_r - R6[3,3]_g + R6[3,3]_w = 1
 R112: R4[0,0]_b + R4[0,0]_r >= 1
 R113: R4[0,0]_r + Start[0,0]_b = 1
 R114: R4[0,0]_b + Start[0,0]_r = 1
 R115: R4[0,1]_b + R4[0,1]_r >= 1
 R116: R4[0,1]_r + Start[0,1]_b = 1
 R117: R4[0,1]_b + Start[0,1]_r = 1
 R118: R4[0,2]_b + R4[0,2]_r >= 1
 R119: R4[0,2]_r + Start[0,2]_b = 1
 R120: R4[0,2]_b + Start[0,2]_r = 1
 R121: R4[0,3]_b + R4[0,3]_r >= 1
 R122: R4[0,3]_r + Start[0,3]_b = 1
 R123: R4[0,3]_b + Start[0,3]_r = 1
 R124: R4[1,0]_b + R4[1,0]_r >= 1
 R125: R4[1,0]_r + Start[1,0]_b = 1
 R126: R4[1,0]_b + Start[1,0]_r = 1
 R127: R4[1,1]_b + R4[1,1]_r >= 1
 R128: R4[1,1]_r + Start[1,1]_b = 1
 R129: R4[1,1]_b + Start[1,1]_r = 1
 R130: R4[1,2]_b + R4[1,2]_r >= 1
 R131: R4[1,2]_r + Start[1,2]_b = 1
 R132: R4[1,2]_b + Start[1,2]_r = 1
 R133: R4[1,3]_b + R4[1,3]_r >= 1
 R134: R4[1,3]_r + Start[1,3]_b = 1
 R135: R4[1,3]_b + Start[1,3]_r = 1
 R136: R4[2,0]_b + R4[2,0]_r >= 1
 R137: R4[2,0]_r + Start[2,0]_b = 1
 R138: R4[2,0]_b + Start[2,0]_r = 1
 R139: R4[2,1]_b + R4[2,1]_r >= 1
 R140: R4[2,1]_r + Start[2,1]_b = 1
 R141: R4[2,1]_b + Start[2,1]_r = 1
 R142: R4[2,2]_b + R4[2,2]_r >= 1
 R143: R4[2,2]_r + Start[2,2]_b = 1
 R144: R4[2,2]_b + Start[2,2]_r = 1
 R145: R4[2,3]_b + R4[2,3]_r >= 1
 R146: R4[2,3]_r + Start[2,3]_b = 1
 R147: R4[2,3]_b + Start[2,3]_r = 1
 R148: R4[3,0]_b + R4[3,0]_r >= 1
 R149: R4[3,0]_r + Start[3,0]_b = 1
 R150: R4[3,0]_b + Start[3,0]_r = 1
 R151: R4[3,1]_b + R4[3,1]_r >= 1
 R152: R4[3,1]_r + Start[3,1]_b = 1
 R153: R4[3,1]_b + Start[3,1]_r = 1
 R154: R4[3,2]_b + R4[3,2]_r >= 1
 R155: R4[3,2]_r + Start[3,2]_b = 1
 R156: R4[3,2]_b + Start[3,2]_r = 1
 R157: R4[3,3]_b + R4[3,3]_r >= 1
 R158: R4[3,3]_r + Start[3,3]_b = 1
 R159: R4[3,3]_b + Start[3,3]_r = 1
 R160: R2[0,0]_b + R2[1,1]_b + R2[2,2]_b + R2[3,3]_b + 4 R3SB_C0_u <= 4
 R161: R2[0,0]_b + R2[1,1]_b + R2[2,2]_b + R2[3,3]_b + R3[0,0]_b
   + R3[1,0]_b + R3[2,0]_b + R3[3,0]_b - 5 R3SB_C0_x <= 3
 R162: R2[0,0]_b + R2[1,1]_b + R2[2,2]_b + R2[3,3]_b + R3[0,0]_b
   + R3[1,0]_b + R3[2,0]_b + R3[3,0]_b - 8 R3SB_C0_x >= 0
 R163: R2[0,0]_r + R2[1,1]_r + R2[2,2]_r + R2[3,3]_r + 4 R3SB_C0_u <= 4
 R164: R2[0,0]_r + R2[1,1]_r + R2[2,2]_r + R2[3,3]_r + R3[0,0]_r
   + R3[1,0]_r + R3[2,0]_r + R3[3,0]_r - 5 R3SB_C0_y <= 3
 R165: R2[0,0]_r + R2[1,1]_r + R2[2,2]_r + R2[3,3]_r + R3[0,0]_r
   + R3[1,0]_r + R3[2,0]_r + R3[3,0]_r - 8 R3SB_C0_y >= 0
 R166: R3[0,0]_b + R3[1,0]_b + R3[2,0]_b + R3[3,0]_b - R2C0_bwd
   - 4 R3SB_C0_x = 0
 R167: R3[0,0]_r + R3[1,0]_r + R3[2,0]_r + R3[3,0]_r - R2C0_fwd
   - 4 R3SB_C0_y = 0
 R168: R2[0,1]_b + R2[1,2]_b + R2[2,3]_b + R2[3,0]_b + 4 R3SB_C1_u <= 4
 R169: R2[0,1]_b + R2[1,2]_b + R2[2,3]_b + R2[3,0]_b + R3[0,1]_b
   + R3[1,1]_b + R3[2,1]_b + R3[3,1]_b - 5 R3SB_C1_x <= 3
 R170: R2[0,1]_b + R2[1,2]_b + R2[2,3]_b + R2[3,0]_b + R3[0,1]_b
   + R3[1,1]_b + R3[2,1]_b + R3[3,1]_b - 8 R3SB_C1_x >= 0
 R171: R2[0,1]_r + R2[1,2]_r + R2[2,3]_r + R2[3,0]_r + 4 R3SB_C1_u <= 4
 R172: R2[0,1]_r + R2[1,2]_r + R2[2,3]_r + R2[3,0]_r + R3[0,1]_r
   + R3[1,1]_r + R3[2,1]_r + R3[3,1]_r - 5 R3SB_C1_y <= 3
 R173: R2[0,1]_r + R2[1,2]_r + R2[2,3]_r + R2[3,0]_r + R3[0,1]_r
   + R3[1,1]_r + R3[2,1]_r + R3[3,1]_r - 8 R3SB_C1_y >= 0
 R174: R3[0,1]_b + R3[1,1]_b + R3[2,1]_b + R3[3,1]_b - R2C1_bwd
   - 4 R3SB_C1_x = 0
 R175: R3[0,1]_r + R3[1,1]_r + R3[2,1]_r + R3[3,1]_r - R2C1_fwd
   - 4 R3SB_C1_y = 0
 R176: R2[0,2]_b + R2[1,3]_b + R2[2,0]_b + R2[3,1]_b + 4 R3SB_C2_u <= 4
 R177: R2[0,2]_b + R2[1,3]_b + R2[2,0]_b + R2[3,1]_b + R3[0,2]_b
   + R3[1,2]_b + R3[2,2]_b + R3[3,2]_b - 5 R3SB_C2_x <= 3
 R178: R2[0,2]_b + R2[1,3]_b + R2[2,0]_b + R2[3,1]_b + R3[0,2]_b
   + R3[1,2]_b + R3[2,2]_b + R3[3,2]_b - 8 R3SB_C2_x >= 0
 R179: R2[0,2]_r + R2[1,3]_r + R2[2,0]_r + R2[3,1]_r + 4 R3SB_C2_u <= 4
 R180: R2[0,2]_r + R2[1,3]_r + R2[2,0]_r + R2[3,1]_r + R3[0,2]_r
   + R3[1,2]_r + R3[2,2]_r + R3[3,2]_r - 5 R3SB_C2_y <= 3
 R181: R2[0,2]_r + R2[1,3]_r + R2[2,0]_r + R2[3,1]_r + R3[0,2]_r
   + R3[1,2]_r + R3[2,2]_r + R3[3,2]_r - 8 R3SB_C2_y >= 0
 R182: R3[0,2]_b + R3[1,2]_b + R3[2,2]_b + R3[3,2]_b - R2C2_bwd
   - 4 R3SB_C2_x = 0
 R183: R3[0,2]_r + R3[1,2]_r + R3[2,2]_r + R3[3,2]_r - R2C2_fwd
   - 4 R3SB_C2_y = 0
 R184: R2[0,3]_b + R2[1,0]_b + R2[2,1]_b + R2[3,2]_b + 4 R3SB_C3_u <= 4
 R185: R2[0,3]_b + R2[1,0]_b + R2[2,1]_b + R2[3,2]_b + R3[0,3]_b
   + R3[1,3]_b + R3[2,3]_b + R3[3,3]_b - 5 R3SB_C3_x <= 3
 R186: R2[0,3]_b + R2[1,0]_b + R2[2,1]_b + R2[3,2]_b + R3[0,3]_b
   + R3[1,3]_b + R3[2,3]_b + R3[3,3]_b - 8 R3SB_C3_x >= 0
 R187: R2[0,3]_r + R2[1,0]_r + R2[2,1]_r + R2[3,2]_r + 4 R3SB_C3_u <= 4
 R188: R2[0,3]_r + R2[1,0]_r + R2[2,1]_r + R2[3,2]_r + R3[0,3]_r
   + R3[1,3]_r + R3[2,3]_r + R3[3,3]_r - 5 R3SB_C3_y <= 3
 R189: R2[0,3]_r + R2[1,0]_r + R2[2,1]_r + R2[3,2]_r + R3[0,3]_r
   + R3[1,3]_r + R3[2,3]_r + R3[3,3]_r - 8 R3SB_C3_y >= 0
 R190: R3[0,3]_b + R3[1,3]_b + R3[2,3]_b + R3[3,3]_b - R2C3_bwd
   - 4 R3SB_C3_x = 0
 R191: R3[0,3]_r + R3[1,3]_r + R3[2,3]_r + R3[3,3]_r - R2C3_fwd
   - 4 R3SB_C3_y = 0
 R192: R3[0,0]_b + R3[1,1]_b + R3[2,2]_b + R3[3,3]_b + 4 R4SB_C0_u <= 4
 R193: R3[0,0]_b + R3[1,1]_b + R3[2,2]_b + R3[3,3]_b + R4[0,0]_b
   + R4[1,0]_b + R4[2,0]_b + R4[3,0]_b - 5 R4SB_C0_x <= 3
 R194: R3[0,0]_b + R3[1,1]_b + R3[2,2]_b + R3[3,3]_b + R4[0,0]_b
   + R4[1,0]_b + R4[2,0]_b + R4[3,0]_b - 8 R4SB_C0_x >= 0
 R195: R3[0,0]_r + R3[1,1]_r + R3[2,2]_r + R3[3,3]_r + 4 R4SB_C0_u <= 4
 R196: R3[0,0]_r + R3[1,1]_r + R3[2,2]_r + R3[3,3]_r + R4[0,0]_r
   + R4[1,0]_r + R4[2,0]_r + R4[3,0]_r - 5 R4SB_C0_y <= 3
 R197: R3[0,0]_r + R3[1,1]_r + R3[2,2]_r + R3[3,3]_r + R4[0,0]_r
   + R4[1,0]_r + R4[2,0]_r + R4[3,0]_r - 8 R4SB_C0_y >= 0
 R198: R4[0,0]_b + R4[1,0]_b + R4[2,0]_b + R4[3,0]_b - R3C0_bwd
   - 4 R4SB_C0_x = 0
 R199: R4[0,0]_r + R4[1,0]_r + R4[2,0]_r + R4[3,0]_r - R3C0_fwd
   - 4 R4SB_C0_y = 0
 R200: R3[0,1]_b + R3[1,2]_b + R3[2,3]_b + R3[3,0]_b + 4 R4SB_C1_u <= 4
 R201: R3[0,1]_b + R3[1,2]_b + R3[2,3]_b + R3[3,0]_b + R4[0,1]_b
   + R4[1,1]_b + R4[2,1]_b + R4[3,1]_b - 5 R4SB_C1_x <= 3
 R202: R3[0,1]_b + R3[1,2]_b + R3[2,3]_b + R3[3,0]_b + R4[0,1]_b
   + R4[1,1]_b + R4[2,1]_b + R4[3,1]_b - 8 R4SB_C1_x >= 0
 R203: R3[0,1]_r + R3[1,2]_r + R3[2,3]_r + R3[3,0]_r + 4 R4SB_C1_u <= 4
 R204: R3[0,1]_r + R3[1,2]_r + R3[2,3]_r + R3[3,0]_r + R4[0,1]_r
   + R4[1,1]_r + R4[2,1]_r + R4[3,1]_r - 5 R4SB_C1_y <= 3
 R205: R3[0,1]_r + R3[1,2]_r + R3[2,3]_r + R3[3,0]_r + R4[0,1]_r
   + R4[1,1]_r + R4[2,1]_r + R4[3,1]_r - 8 R4SB_C1_y >= 0
 R206: R4[0,1]_b + R4[1,1]_b + R4[2,1]_b + R4[3,1]_b - R3C1_bwd
   - 4 R4SB_C1_x = 0
 R207: R4[0,1]_r + R4[1,1]_r + R4[2,1]_r + R4[3,1]_r - R3C1_fwd
   - 4 R4SB_C1_y = 0
 R208: R3[0,2]_b + R3[1,3]_b + R3[2,0]_b + R3[3,1]_b + 4 R4SB_C2_u <= 4
 R209: R3[0,2]_b + R3[1,3]_b + R3[2,0]_b + R3[3,1]_b + R4[0,2]_b
   + R4[1,2]_b + R4[2,2]_b + R4[3,2]_b - 5 R4SB_C2_x <= 3
 R210: R3[0,2]_b + R3[1,3]_b + R3[2,0]_b + R3[3,1]_b + R4[0,2]_b
   + R4[1,2]_b + R4[2,2]_b + R4[3,2]_b - 8 R4SB_C2_x >= 0
 R211: R3[0,2]_r + R3[1,3]_r + R3[2,0]_r + R3[3,1]_r + 4 R4SB_C2_u <= 4
 R212: R3[0,2]_r + R3[1,3]_r + R3[2,0]_r + R3[3,1]_r + R4[0,2]_r
   + R4[1,2]_r + R4[2,2]_r + R4[3,2]_r - 5 R4SB_C2_y <= 3
 R213: R3[0,2]_r + R3[1,3]_r + R3[2,0]_r + R3[3,1]_r + R4[0,2]_r
   + R4[1,2]_r + R4[2,2]_r + R4[3,2]_r - 8 R4SB_C2_y >= 0
 R214: R4[0,2]_b + R4[1,2]_b + R4[2,2]_b + R4[3,2]_b - R3C2_bwd
   - 4 R4SB_C2_x = 0
 R215: R4[0,2]_r + R4[1,2]_r + R4[2,2]_r + R4[3,2]_r - R3C2_fwd
   - 4 R4SB_C2_y = 0
 R216: R3[0,3]_b + R3[1,0]_b + R3[2,1]_b + R3[3,2]_b + 4 R4SB_C3_u <= 4
 R217: R3[0,3]_b + R3[1,0]_b + R3[2,1]_b + R3[3,2]_b + R4[0,3]_b
   + R4[1,3]_b + R4[2,3]_b + R4[3,3]_b - 5 R4SB_C3_x <= 3
 R218: R3[0,3]_b + R3[1,0]_b + R3[2,1]_b + R3[3,2]_b + R4[0,3]_b
   + R4[1,3]_b + R4[2,3]_b + R4[3,3]_b - 8 R4SB_C3_x >= 0
 R219: R3[0,3]_r + R3[1,0]_r + R3[2,1]_r + R3[3,2]_r + 4 R4SB_C3_u <= 4
 R220: R3[0,3]_r + R3[1,0]_r + R3[2,1]_r + R3[3,2]_r + R4[0,3]_r
   + R4[1,3]_r + R4[2,3]_r + R4[3,3]_r - 5 R4SB_C3_y <= 3
 R221: R3[0,3]_r + R3[1,0]_r + R3[2,1]_r + R3[3,2]_r + R4[0,3]_r
   + R4[1,3]_r + R4[2,3]_r + R4[3,3]_r - 8 R4SB_C3_y >= 0
 R222: R4[0,3]_b + R4[1,3]_b + R4[2,3]_b + R4[3,3]_b - R3C3_bwd
   - 4 R4SB_C3_x = 0
 R223: R4[0,3]_r + R4[1,3]_r + R4[2,3]_r + R4[3,3]_r - R3C3_fwd
   - 4 R4SB_C3_y = 0
 R224: R5[0,0]_b + R5[1,0]_b + R5[2,0]_b + R5[3,0]_b + 4 R4MC_C0_u <= 4
 R225: R4[0,0]_b + R4[1,1]_b + R4[2,2]_b + R4[3,3]_b + R5[0,0]_b
   + R5[1,0]_b + R5[2,0]_b + R5[3,0]_b - 5 R4MC_C0_x <= 3
 R226: R4[0,0]_b + R4[1,1]_b + R4[2,2]_b + R4[3,3]_b + R5[0,0]_b
   + R5[1,0]_b + R5[2,0]_b + R5[3,0]_b - 8 R4MC_C0_x >= 0
 R227: R5[0,0]_r + R5[1,0]_r + R5[2,0]_r + R5[3,0]_r + 4 R4MC_C0_u <= 4
 R228: R4[0,0]_r + R4[1,1]_r + R4[2,2]_r + R4[3,3]_r + R5[0,0]_r
   + R5[1,0]_r + R5[2,0]_r + R5[3,0]_r - 5 R4MC_C0_y <= 3
 R229: R4[0,0]_r + R4[1,1]_r + R4[2,2]_r + R4[3,3]_r + R5[0,0]_r
   + R5[1,0]_r + R5[2,0]_r + R5[3,0]_r - 8 R4MC_C0_y >= 0
 R230: R4[0,0]_b + R4[1,1]_b + R4[2,2]_b + R4[3,3]_b - R4C0_bwd
   - 4 R4MC_C0_x = 0
 R231: R4[0,0]_r + R4[1,1]_r + R4[2,2]_r + R4[3,3]_r - R4C0_fwd
   - 4 R4MC_C0_y = 0
 R232: R5[0,1]_b + R5[1,1]_b + R5[2,1]_b + R5[3,1]_b + 4 R4MC_C1_u <= 4
 R233: R4[0,1]_b + R4[1,2]_b + R4[2,3]_b + R4[3,0]_b + R5[0,1]_b
   + R5[1,1]_b + R5[2,1]_b + R5[3,1]_b - 5 R4MC_C1_x <= 3
 R234: R4[0,1]_b + R4[1,2]_b + R4[2,3]_b + R4[3,0]_b + R5[0,1]_b
   + R5[1,1]_b + R5[2,1]_b + R5[3,1]_b - 8 R4MC_C1_x >= 0
 R235: R5[0,1]_r + R5[1,1]_r + R5[2,1]_r + R5[3,1]_r + 4 R4MC_C1_u <= 4
 R236: R4[0,1]_r + R4[1,2]_r + R4[2,3]_r + R4[3,0]_r + R5[0,1]_r
   + R5[1,1]_r + R5[2,1]_r + R5[3,1]_r - 5 R4MC_C1_y <= 3
 R237: R4[0,1]_r + R4[1,2]_r + R4[2,3]_r + R4[3,0]_r + R5[0,1]_r
   + R5[1,1]_r + R5[2,1]_r + R5[3,1]_r - 8 R4MC_C1_y >= 0
 R238: R4[0,1]_b + R4[1,2]_b + R4[2,3]_b + R4[3,0]_b - R4C1_bwd
   - 4 R4MC_C1_x = 0
 R239: R4[0,1]_r + R4[1,2]_r + R4[2,3]_r + R4[3,0]_r - R4C1_fwd
   - 4 R4MC_C1_y = 0
 R240: R5[0,2]_b + R5[1,2]_b + R5[2,2]_b + R5[3,2]_b + 4 R4MC_C2_u <= 4
 R241: R4[0,2]_b + R4[1,3]_b + R4[2,0]_b + R4[3,1]_b + R5[0,2]_b
   + R5[1,2]_b + R5[2,2]_b + R5[3,2]_b - 5 R4MC_C2_x <= 3
 R242: R4[0,2]_b + R4[1,3]_b + R4[2,0]_b + R4[3,1]_b + R5[0,2]_b
   + R5[1,2]_b + R5[2,2]_b + R5[3,2]_b - 8 R4MC_C2_x >= 0
 R243: R5[0,2]_r + R5[1,2]_r + R5[2,2]_r + R5[3,2]_r + 4 R4MC_C2_u <= 4
 R244: R4[0,2]_r + R4[1,3]_r + R4[2,0]_r + R4[3,1]_r + R5[0,2]_r
   + R5[1,2]_r + R5[2,2]_r + R5[3,2]_r - 5 R4MC_C2_y <= 3
 R245: R4[0,2]_r + R4[1,3]_r + R4[2,0]_r + R4[3,1]_r + R5[0,2]_r
   + R5[1,2]_r + R5[2,2]_r + R5[3,2]_r - 8 R4MC_C2_y >= 0
 R246: R4[0,2]_b + R4[1,3]_b + R4[2,0]_b + R4[3,1]_b - R4C2_bwd
   - 4 R4MC_C2_x = 0
 R247: R4[0,2]_r + R4[1,3]_r + R4[2,0]_r + R4[3,1]_r - R4C2_fwd
   - 4 R4MC_C2_y = 0
 R248: R5[0,3]_b + R5[1,3]_b + R5[2,3]_b + R5[3,3]_b + 4 R4MC_C3_u <= 4
 R249: R4[0,3]_b + R4[1,0]_b + R4[2,1]_b + R4[3,2]_b + R5[0,3]_b
   + R5[1,3]_b + R5[2,3]_b + R5[3,3]_b - 5 R4MC_C3_x <= 3
 R250: R4[0,3]_b + R4[1,0]_b + R4[2,1]_b + R4[3,2]_b + R5[0,3]_b
   + R5[1,3]_b + R5[2,3]_b + R5[3,3]_b - 8 R4MC_C3_x >= 0
 R251: R5[0,3]_r + R5[1,3]_r + R5[2,3]_r + R5[3,3]_r + 4 R4MC_C3_u <= 4
 R252: R4[0,3]_r + R4[1,0]_r + R4[2,1]_r + R4[3,2]_r + R5[0,3]_r
   + R5[1,3]_r + R5[2,3]_r + R5[3,3]_r - 5 R4MC_C3_y <= 3
 R253: R4[0,3]_r + R4[1,0]_r + R4[2,1]_r + R4[3,2]_r + R5[0,3]_r
   + R5[1,3]_r + R5[2,3]_r + R5[3,3]_r - 8 R4MC_C3_y >= 0
 R254: R4[0,3]_b + R4[1,0]_b + R4[2,1]_b + R4[3,2]_b - R4C3_bwd
   - 4 R4MC_C3_x = 0
 R255: R4[0,3]_r + R4[1,0]_r + R4[2,1]_r + R4[3,2]_r - R4C3_fwd
   - 4 R4MC_C3_y = 0
 R256: R6[0,0]_b + R6[1,0]_b + R6[2,0]_b + R6[3,0]_b + 4 R5MC_C0_u <= 4
 R257: R5[0,0]_b + R5[1,1]_b + R5[2,2]_b + R5[3,3]_b + R6[0,0]_b
   + R6[1,0]_b + R6[2,0]_b + R6[3,0]_b - 5 R5MC_C0_x <= 3
 R258: R5[0,0]_b + R5[1,1]_b + R5[2,2]_b + R5[3,3]_b + R6[0,0]_b
   + R6[1,0]_b + R6[2,0]_b + R6[3,0]_b - 8 R5MC_C0_x >= 0
 R259: R6[0,0]_r + R6[1,0]_r + R6[2,0]_r + R6[3,0]_r + 4 R5MC_C0_u <= 4
 R260: R5[0,0]_r + R5[1,1]_r + R5[2,2]_r + R5[3,3]_r + R6[0,0]_r
   + R6[1,0]_r + R6[2,0]_r + R6[3,0]_r - 5 R5MC_C0_y <= 3
 R261: R5[0,0]_r + R5[1,1]_r + R5[2,2]_r + R5[3,3]_r + R6[0,0]_r
   + R6[1,0]_r + R6[2,0]_r + R6[3,0]_r - 8 R5MC_C0_y >= 0
 R262: R5[0,0]_b + R5[1,1]_b + R5[2,2]_b + R5[3,3]_b - R5C0_bwd
   - 4 R5MC_C0_x = 0
 R263: R5[0,0]_r + R5[1,1]_r + R5[2,2]_r + R5[3,3]_r - R5C0_fwd
   - 4 R5MC_C0_y = 0
 R264: R6[0,1]_b + R6[1,1]_b + R6[2,1]_b + R6[3,1]_b + 4 R5MC_C1_u <= 4
 R265: R5[0,1]_b + R5[1,2]_b + R5[2,3]_b + R5[3,0]_b + R6[0,1]_b
   + R6[1,1]_b + R6[2,1]_b + R6[3,1]_b - 5 R5MC_C1_x <= 3
 R266: R5[0,1]_b + R5[1,2]_b + R5[2,3]_b + R5[3,0]_b + R6[0,1]_b
   + R6[1,1]_b + R6[2,1]_b + R6[3,1]_b - 8 R5MC_C1_x >= 0
 R267: R6[0,1]_r + R6[1,1]_r + R6[2,1]_r + R6[3,1]_r + 4 R5MC_C1_u <= 4
 R268: R5[0,1]_r + R5[1,2]_r + R5[2,3]_r + R5[3,0]_r + R6[0,1]_r
   + R6[1,1]_r + R6[2,1]_r + R6[3,1]_r - 5 R5MC_C1_y <= 3
 R269: R5[0,1]_r + R5[1,2]_r + R5[2,3]_r + R5[3,0]_r + R6[0,1]_r
   + R6[1,1]_r + R6[2,1]_r + R6[3,1]_r - 8 R5MC_C1_y >= 0
 R270: R5[0,1]_b + R5[1,2]_b + R5[2,3]_b + R5[3,0]_b - R5C1_bwd
   - 4 R5MC_C1_x = 0
 R271: R5[0,1]_r + R5[1,2]_r + R5[2,3]_r + R5[3,0]_r - R5C1_fwd
   - 4 R5MC_C1_y = 0
 R272: R6[0,2]_b + R6[1,2]_b + R6[2,2]_b + R6[3,2]_b + 4 R5MC_C2_u <= 4
 R273: R5[0,2]_b + R5[1,3]_b + R5[2,0]_b + R5[3,1]_b + R6[0,2]_b
   + R6[1,2]_b + R6[2,2]_b + R6[3,2]_b - 5 R5MC_C2_x <= 3
 R274: R5[0,2]_b + R5[1,3]_b + R5[2,0]_b + R5[3,1]_b + R6[0,2]_b
   + R6[1,2]_b + R6[2,2]_b + R6[3,2]_b - 8 R5MC_C2_x >= 0
 R275: R6[0,2]_r + R6[1,2]_r + R6[2,2]_r + R6[3,2]_r + 4 R5MC_C2_u <= 4
 R276: R5[0,2]_r + R5[1,3]_r + R5[2,0]_r + R5[3,1]_r + R6[0,2]_r
   + R6[1,2]_r + R6[2,2]_r + R6[3,2]_r - 5 R5MC_C2_y <= 3
 R277: R5[0,2]_r + R5[1,3]_r + R5[2,0]_r + R5[3,1]_r + R6[0,2]_r
   + R6[1,2]_r + R6[2,2]_r + R6[3,2]_r - 8 R5MC_C2_y >= 0
 R278: R5[0,2]_b + R5[1,3]_b + R5[2,0]_b + R5[3,1]_b - R5C2_bwd
   - 4 R5MC_C2_x = 0
 R279: R5[0,2]_r + R5[1,3]_r + R5[2,0]_r + R5[3,1]_r - R5C2_fwd
   - 4 R5MC_C2_y = 0
 R280: R6[0,3]_b + R6[1,3]_b + R6[2,3]_b + R6[3,3]_b + 4 R5MC_C3_u <= 4
 R281: R5[0,3]_b + R5[1,0]_b + R5[2,1]_b + R5[3,2]_b + R6[0,3]_b
   + R6[1,3]_b + R6[2,3]_b + R6[3,3]_b - 5 R5MC_C3_x <= 3
 R282: R5[0,3]_b + R5[1,0]_b + R5[2,1]_b + R5[3,2]_b + R6[0,3]_b
   + R6[1,3]_b + R6[2,3]_b + R6[3,3]_b - 8 R5MC_C3_x >= 0
 R283: R6[0,3]_r + R6[1,3]_r + R6[2,3]_r + R6[3,3]_r + 4 R5MC_C3_u <= 4
 R284: R5[0,3]_r + R5[1,0]_r + R5[2,1]_r + R5[3,2]_r + R6[0,3]_r
   + R6[1,3]_r + R6[2,3]_r + R6[3,3]_r - 5 R5MC_C3_y <= 3
 R285: R5[0,3]_r + R5[1,0]_r + R5[2,1]_r + R5[3,2]_r + R6[0,3]_r
   + R6[1,3]_r + R6[2,3]_r + R6[3,3]_r - 8 R5MC_C3_y >= 0
 R286: R5[0,3]_b + R5[1,0]_b + R5[2,1]_b + R5[3,2]_b - R5C3_bwd
   - 4 R5MC_C3_x = 0
 R287: R5[0,3]_r + R5[1,0]_r + R5[2,1]_r + R5[3,2]_r - R5C3_fwd
   - 4 R5MC_C3_y = 0
 R288: R6C0_fwd = 0
 R289: R6C0_bwd = 0
 R290: - R0[0,0]_b + R6[0,0]_b = 0
 R291: - R0[0,0]_r + R6[0,0]_r = 0
 R292: - R0[1,0]_b + R6[1,1]_b = 0
 R293: - R0[1,0]_r + R6[1,1]_r = 0
 R294: - R0[2,0]_b + R6[2,2]_b = 0
 R295: - R0[2,0]_r + R6[2,2]_r = 0
 R296: - R0[3,0]_b + R6[3,3]_b = 0
 R297: - R0[3,0]_r + R6[3,3]_r = 0
 R298: R6C1_fwd = 0
 R299: R6C1_bwd = 0
 R300: - R0[0,1]_b + R6[0,1]_b = 0
 R301: - R0[0,1]_r + R6[0,1]_r = 0
 R302: - R0[1,1]_b + R6[1,2]_b = 0
 R303: - R0[1,1]_r + R6[1,2]_r = 0
 R304: - R0[2,1]_b + R6[2,3]_b = 0
 R305: - R0[2,1]_r + R6[2,3]_r = 0
 R306: - R0[3,1]_b + R6[3,0]_b = 0
 R307: - R0[3,1]_r + R6[3,0]_r = 0
 R308: R6C2_fwd = 0
 R309: R6C2_bwd = 0
 R310: - R0[0,2]_b + R6[0,2]_b = 0
 R311: - R0[0,2]_r + R6[0,2]_r = 0
 R312: - R0[1,2]_b + R6[1,3]_b = 0
 R313: - R0[1,2]_r + R6[1,3]_r = 0
 R314: - R0[2,2]_b + R6[2,0]_b = 0
 R315: - R0[2,2]_r + R6[2,0]_r = 0
 R316: - R0[3,2]_b + R6[3,1]_b = 0
 R317: - R0[3,2]_r + R6[3,1]_r = 0
 R318: R6C3_fwd = 0
 R319: R6C3_bwd = 0
 R320: - R0[0,3]_b + R6[0,3]_b = 0
 R321: - R0[0,3]_r + R6[0,3]_r = 0
 R322: - R0[1,3]_b + R6[1,0]_b = 0
 R323: - R0[1,3]_r + R6[1,0]_r = 0
 R324: - R0[2,3]_b + R6[2,1]_b = 0
 R325: - R0[2,3]_r + R6[2,1]_r = 0
 R326: - R0[3,3]_b + R6[3,2]_b = 0
 R327: - R0[3,3]_r + R6[3,2]_r = 0
 R328: R1C0_fwd = 0
 R329: R1C0_bwd = 0
 R330: R1C1_fwd = 0
 R331: R1C1_bwd = 0
 R332: R1C2_fwd = 0
 R333: R1C2_bwd = 0
 R334: R1C3_fwd = 0
 R335: R1C3_bwd = 0
 R336: - Start[0,0]_b - Start[0,1]_b - Start[0,2]_b - Start[0,3]_b
   - Start[1,0]_b - Start[1,1]_b - Start[1,2]_b - Start[1,3]_b
   - Start[2,0]_b - Start[2,1]_b - Start[2,2]_b - Start[2,3]_b
   - Start[3,0]_b - Start[3,1]_b - Start[3,2]_b - Start[3,3]_b + R0C0_fwd
   + R0C1_fwd + R0C2_fwd + R0C3_fwd + R1C0_fwd + R1C1_fwd + R1C2_fwd
   + R1C3_fwd + R2C0_fwd + R2C1_fwd + R2C2_fwd + R2C3_fwd + R3C0_fwd
   + R3C1_fwd + R3C2_fwd + R3C3_fwd + R4C0_fwd + R4C1_fwd + R4C2_fwd
   + R4C3_fwd + R5C0_fwd + R5C1_fwd + R5C2_fwd + R5C3_fwd + R6C0_fwd
   + R6C1_fwd + R6C2_fwd + R6C3_fwd + Final_b = 0
 R337: - Start[0,0]_r - Start[0,1]_r - Start[0,2]_r - Start[0,3]_r
   - Start[1,0]_r - Start[1,1]_r - Start[1,2]_r - Start[1,3]_r
   - Start[2,0]_r - Start[2,1]_r - Start[2,2]_r - Start[2,3]_r
   - Start[3,0]_r - Start[3,1]_r - Start[3,2]_r - Start[3,3]_r + R0C0_bwd
   + R0C1_bwd + R0C2_bwd + R0C3_bwd + R1C0_bwd + R1C1_bwd + R1C2_bwd
   + R1C3_bwd + R2C0_bwd + R2C1_bwd + R2C2_bwd + R2C3_bwd + R3C0_bwd
   + R3C1_bwd + R3C2_bwd + R3C3_bwd + R4C0_bwd + R4C1_bwd + R4C2_bwd
   + R4C3_bwd + R5C0_bwd + R5C1_bwd + R5C2_bwd + R5C3_bwd + R6C0_bwd
   + R6C1_bwd + R6C2_bwd + R6C3_bwd + Final_r = 0
 R338: - Match_C0 - Match_C1 - Match_C2 - Match_C3 + Match = 0
 R339: - Final_b + Obj <= 0
 R340: - Final_r + Obj <= 0
 R341: - Match + Obj <= 0
Bounds
 -4 <= Match_C0_u <= 4
 Match_C0 <= 4
 -4 <= Match_C1_u <= 4
 Match_C1 <= 4
 -4 <= Match_C2_u <= 4
 Match_C2 <= 4
 -4 <= Match_C3_u <= 4
 Match_C3 <= 4
 Final_b >= 1
 Final_r >= 1
 Match >= 1
 Obj >= 1
Binaries
 R0[0,0]_b R0[0,0]_r R0[0,0]_g R0[0,0]_w R0[0,1]_b R0[0,1]_r R0[0,1]_g
 R0[0,1]_w R0[0,2]_b R0[0,2]_r R0[0,2]_g R0[0,2]_w R0[0,3]_b R0[0,3]_r
 R0[0,3]_g R0[0,3]_w R0[1,0]_b R0[1,0]_r R0[1,0]_g R0[1,0]_w R0[1,1]_b
 R0[1,1]_r R0[1,1]_g R0[1,1]_w R0[1,2]_b R0[1,2]_r R0[1,2]_g R0[1,2]_w
 R0[1,3]_b R0[1,3]_r R0[1,3]_g R0[1,3]_w R0[2,0]_b R0[2,0]_r R0[2,0]_g
 R0[2,0]_w R0[2,1]_b R0[2,1]_r R0[2,1]_g R0[2,1]_w R0[2,2]_b R0[2,2]_r
 R0[2,2]_g R0[2,2]_w R0[2,3]_b R0[2,3]_r R0[2,3]_g R0[2,3]_w R0[3,0]_b
 R0[3,0]_r R0[3,0]_g R0[3,0]_w R0[3,1]_b R0[3,1]_r R0[3,1]_g R0[3,1]_w
 R0[3,2]_b R0[3,2]_r R0[3,2]_g R0[3,2]_w R0[3,3]_b R0[3,3]_r R0[3,3]_g
 R0[3,3]_w R1[0,0]_b R1[0,0]_r R1[0,0]_g R1[0,0]_w R1[0,1]_b R1[0,1]_r
 R1[0,1]_g R1[0,1]_w R1[0,2]_b R1[0,2]_r R1[0,2]_g R1[0,2]_w R1[0,3]_b
 R1[0,3]_r R1[0,3]_g R1[0,3]_w R1[1,0]_b R1[1,0]_r R1[1,0]_g R1[1,0]_w
 R1[1,1]_b R1[1,1]_r R1[1,1]_g R1[1,1]_w R1[1,2]_b R1[1,2]_r R1[1,2]_g
 R1[1,2]_w R1[1,3]_b R1[1,3]_r R1[1,3]_g R1[1,3]_w R1[2,0]_b R1[2,0]_r
 R1[2,0]_g R1[2,0]_w R1[2,1]_b R1[2,1]_r R1[2,1]_g R1[2,1]_w R1[2,2]_b
 R1[2,2]_r R1[2,2]_g R1[2,2]_w R1[2,3]_b R1[2,3]_r R1[2,3]_g R1[2,3]_w
 R1[3,0]_b R1[3,0]_r R1[3,0]_g R1[3,0]_w R1[3,1]_b R1[3,1]_r R1[3,1]_g
 R1[3,1]_w R1[3,2]_b R1[3,2]_r R1[3,2]_g R1[3,2]_w R1[3,3]_b R1[3,3]_r
 R1[3,3]_g R1[3,3]_w R2[0,0]_b R2[0,0]_r R2[0,0]_g R2[0,0]_w R2[0,1]_b
 R2[0,1]_r R2[0,1]_g R2[0,1]_w R2[0,2]_b R2[0,2]_r R2[0,2]_g R2[0,2]_w
 R2[0,3]_b R2[0,3]_r R2[0,3]_g R2[0,3]_w R2[1,0]_b R2[1,0]_r R2[1,0]_g
 R2[1,0]_w R2[1,1]_b R2[1,1]_r R2[1,1]_g R2[1,1]_w R2[1,2]_b R2[1,2]_r
 R2[1,2]_g R2[1,2]_w R2[1,3]_b R2[1,3]_r R2[1,3]_g R2[1,3]_w R2[2,0]_b
 R2[2,0]_r R2[2,0]_g R2[2,0]_w R2[2,1]_b R2[2,1]_r R2[2,1]_g R2[2,1]_w
 R2[2,2]_b R2[2,2]_r R2[2,2]_g R2[2,2]_w R2[2,3]_b R2[2,3]_r R2[2,3]_g
 R2[2,3]_w R2[3,0]_b R2[3,0]_r R2[3,0]_g R2[3,0]_w R2[3,1]_b R2[3,1]_r
 R2[3,1]_g R2[3,1]_w R2[3,2]_b R2[3,2]_r R2[3,2]_g R2[3,2]_w R2[3,3]_b
 R2[3,3]_r R2[3,3]_g R2[3,3]_w R3[0,0]_b R3[0,0]_r R3[0,0]_g R3[0,0]_w
 R3[0,1]_b R3[0,1]_r R3[0,1]_g R3[0,1]_w R3[0,2]_b R3[0,2]_r R3[0,2]_g
 R3[0,2]_w R3[0,3]_b R3[0,3]_r R3[0,3]_g R3[0,3]_w R3[1,0]_b R3[1,0]_r
 R3[1,0]_g R3[1,0]_w R3[1,1]_b R3[1,1]_r R3[1,1]_g R3[1,1]_w R3[1,2]_b
 R3[1,2]_r R3[1,2]_g R3[1,2]_w R3[1,3]_b R3[1,3]_r R3[1,3]_g R3[1,3]_w
 R3[2,0]_b R3[2,0]_r R3[2,0]_g R3[2,0]_w R3[2,1]_b R3[2,1]_r R3[2,1]_g
 R3[2,1]_w R3[2,2]_b R3[2,2]_r R3[2,2]_g R3[2,2]_w R3[2,3]_b R3[2,3]_r
 R3[2,3]_g R3[2,3]_w R3[3,0]_b R3[3,0]_r R3[3,0]_g R3[3,0]_w R3[3,1]_b
 R3[3,1]_r R3[3,1]_g R3[3,1]_w R3[3,2]_b R3[3,2]_r R3[3,2]_g R3[3,2]_w
 R3[3,3]_b R3[3,3]_r R3[3,3]_g R3[3,3]_w R4[0,0]_b R4[0,0]_r R4[0,0]_g
 R4[0,0]_w R4[0,1]_b R4[0,1]_r R4[0,1]_g R4[0,1]_w R4[0,2]_b R4[0,2]_r
 R4[0,2]_g R4[0,2]_w R4[0,3]_b R4[0,3]_r R4[0,3]_g R4[0,3]_w R4[1,0]_b
 R4[1,0]_r R4[1,0]_g R4[1,0]_w R4[1,1]_b R4[1,1]_r R4[1,1]_g R4[1,1]_w
 R4[1,2]_b R4[1,2]_r R4[1,2]_g R4[1,2]_w R4[1,3]_b R4[1,3]_r R4[1,3]_g
 R4[1,3]_w R4[2,0]_b R4[2,0]_r R4[2,0]_g R4[2,0]_w R4[2,1]_b R4[2,1]_r
 R4[2,1]_g R4[2,1]_w R4[2,2]_b R4[2,2]_r R4[2,2]_g R4[2,2]_w R4[2,3]_b
 R4[2,3]_r R4[2,3]_g R4[2,3]_w R4[3,0]_b R4[3,0]_r R4[3,0]_g R4[3,0]_w
 R4[3,1]_b R4[3,1]_r R4[3,1]_g R4[3,1]_w R4[3,2]_b R4[3,2]_r R4[3,2]_g
 R4[3,2]_w R4[3,3]_b R4[3,3]_r R4[3,3]_g R4[3,3]_w R5[0,0]_b R5[0,0]_r
 R5[0,0]_g R5[0,0]_w R5[0,1]_b R5[0,1]_r R5[0,1]_g R5[0,1]_w R5[0,2]_b
 R5[0,2]_r R5[0,2]_g R5[0,2]_w R5[0,3]_b R5[0,3]_r R5[0,3]_g R5[0,3]_w
 R5[1,0]_b R5[1,0]_r R5[1,0]_g R5[1,0]_w R5[1,1]_b R5[1,1]_r R5[1,1]_g
 R5[1,1]_w R5[1,2]_b R5[1,2]_r R5[1,2]_g R5[1,2]_w R5[1,3]_b R5[1,3]_r
 R5[1,3]_g R5[1,3]_w R5[2,0]_b R5[2,0]_r R5[2,0]_g R5[2,0]_w R5[2,1]_b
 R5[2,1]_r R5[2,1]_g R5[2,1]_w R5[2,2]_b R5[2,2]_r R5[2,2]_g R5[2,2]_w
 R5[2,3]_b R5[2,3]_r R5[2,3]_g R5[2,3]_w R5[3,0]_b R5[3,0]_r R5[3,0]_g
 R5[3,0]_w R5[3,1]_b R5[3,1]_r R5[3,1]_g R5[3,1]_w R5[3,2]_b R5[3,2]_r
 R5[3,2]_g R5[3,2]_w R5[3,3]_b R5[3,3]_r R5[3,3]_g R5[3,3]_w R6[0,0]_b
 R6[0,0]_r R6[0,0]_g R6[0,0]_w R6[0,1]_b R6[0,1]_r R6[0,1]_g R6[0,1]_w
 R6[0,2]_b R6[0,2]_r R6[0,2]_g R6[0,2]_w R6[0,3]_b R6[0,3]_r R6[0,3]_g
 R6[0,3]_w R6[1,0]_b R6[1,0]_r R6[1,0]_g R6[1,0]_w R6[1,1]_b R6[1,1]_r
 R6[1,1]_g R6[1,1]_w R6[1,2]_b R6[1,2]_r R6[1,2]_g R6[1,2]_w R6[1,3]_b
 R6[1,3]_r R6[1,3]_g R6[1,3]_w R6[2,0]_b R6[2,0]_r R6[2,0]_g R6[2,0]_w
 R6[2,1]_b R6[2,1]_r R6[2,1]_g R6[2,1]_w R6[2,2]_b R6[2,2]_r R6[2,2]_g
 R6[2,2]_w R6[2,3]_b R6[2,3]_r R6[2,3]_g R6[2,3]_w R6[3,0]_b R6[3,0]_r
 R6[3,0]_g R6[3,0]_w R6[3,1]_b R6[3,1]_r R6[3,1]_g R6[3,1]_w R6[3,2]_b
 R6[3,2]_r R6[3,2]_g R6[3,2]_w R6[3,3]_b R6[3,3]_r R6[3,3]_g R6[3,3]_w
 Start[0,0]_b Start[0,0]_r Start[0,1]_b Start[0,1]_r Start[0,2]_b
 Start[0,2]_r Start[0,3]_b Start[0,3]_r Start[1,0]_b Start[1,0]_r
 Start[1,1]_b Start[1,1]_r Start[1,2]_b Start[1,2]_r Start[1,3]_b
 Start[1,3]_r Start[2,0]_b Start[2,0]_r Start[2,1]_b Start[2,1]_r
 Start[2,2]_b Start[2,2]_r Start[2,3]_b Start[2,3]_r Start[3,0]_b
 Start[3,0]_r Start[3,1]_b Start[3,1]_r Start[3,2]_b Start[3,2]_r
 Start[3,3]_b Start[3,3]_r R0C0_fwd R0C0_bwd R0C1_fwd R0C1_bwd R0C2_fwd
 R0C2_bwd R0C3_fwd R0C3_bwd R1C0_fwd R1C0_bwd R1C1_fwd R1C1_bwd R1C2_fwd
 R1C2_bwd R1C3_fwd R1C3_bwd R2C0_fwd R2C0_bwd R2C1_fwd R2C1_bwd R2C2_fwd
 R2C2_bwd R2C3_fwd R2C3_bwd R3C0_fwd R3C0_bwd R3C1_fwd R3C1_bwd R3C2_fwd
 R3C2_bwd R3C3_fwd R3C3_bwd R4C0_fwd R4C0_bwd R4C1_fwd R4C1_bwd R4C2_fwd
 R4C2_bwd R4C3_fwd R4C3_bwd R5C0_fwd R5C0_bwd R5C1_fwd R5C1_bwd R5C2_fwd
 R5C2_bwd R5C3_fwd R5C3_bwd R6C0_fwd R6C0_bwd R6C1_fwd R6C1_bwd R6C2_fwd
 R6C2_bwd R6C3_fwd R6C3_bwd R0SB_C0_u R0SB_C0_x R0SB_C0_y R0MC_C0_u
 R0MC_C0_x R0MC_C0_y R0SB_C1_u R0SB_C1_x R0SB_C1_y R0MC_C1_u R0MC_C1_x
 R0MC_C1_y R0SB_C2_u R0SB_C2_x R0SB_C2_y R0MC_C2_u R0MC_C2_x R0MC_C2_y
 R0SB_C3_u R0SB_C3_x R0SB_C3_y R0MC_C3_u R0MC_C3_x R0MC_C3_y R1SB_C0_u
 R1SB_C0_x R1SB_C0_y R1MC_C0_u R1MC_C0_x R1MC_C0_y R1SB_C1_u R1SB_C1_x
 R1SB_C1_y R1MC_C1_u R1MC_C1_x R1MC_C1_y R1SB_C2_u R1SB_C2_x R1SB_C2_y
 R1MC_C2_u R1MC_C2_x R1MC_C2_y R1SB_C3_u R1SB_C3_x R1SB_C3_y R1MC_C3_u
 R1MC_C3_x R1MC_C3_y R2SB_C0_u R2SB_C0_x R2SB_C0_y R2MC_C0_u R2MC_C0_x
 R2MC_C0_y R2SB_C1_u R2SB_C1_x R2SB_C1_y R2MC_C1_u R2MC_C1_x R2MC_C1_y
 R2SB_C2_u R2SB_C2_x R2SB_C2_y R2MC_C2_u R2MC_C2_x R2MC_C2_y R2SB_C3_u
 R2SB_C3_x R2SB_C3_y R2MC_C3_u R2MC_C3_x R2MC_C3_y R3SB_C0_u R3SB_C0_x
 R3SB_C0_y R3MC_C0_u R3MC_C0_x R3MC_C0_y R3SB_C1_u R3SB_C1_x R3SB_C1_y
 R3MC_C1_u R3MC_C1_x R3MC_C1_y R3SB_C2_u R3SB_C2_x R3SB_C2_y R3MC_C2_u
 R3MC_C2_x R3MC_C2_y R3SB_C3_u R3SB_C3_x R3SB_C3_y R3MC_C3_u R3MC_C3_x
 R3MC_C3_y R4SB_C0_u R4SB_C0_x R4SB_C0_y R4MC_C0_u R4MC_C0_x R4MC_C0_y
 R4SB_C1_u R4SB_C1_x R4SB_C1_y R4MC_C1_u R4MC_C1_x R4MC_C1_y R4SB_C2_u
 R4SB_C2_x R4SB_C2_y R4MC_C2_u R4MC_C2_x R4MC_C2_y R4SB_C3_u R4SB_C3_x
 R4SB_C3_y R4MC_C3_u R4MC_C3_x R4MC_C3_y R5SB_C0_u R5SB_C0_x R5SB_C0_y
 R5MC_C0_u R5MC_C0_x R5MC_C0_y R5SB_C1_u R5SB_C1_x R5SB_C1_y R5MC_C1_u
 R5MC_C1_x R5MC_C1_y R5SB_C2_u R5SB_C2_x R5SB_C2_y R5MC_C2_u R5MC_C2_x
 R5MC_C2_y R5SB_C3_u R5SB_C3_x R5SB_C3_y R5MC_C3_u R5MC_C3_x R5MC_C3_y
 R6SB_C0_u R6SB_C0_x R6SB_C0_y R6MC_C0_u R6MC_C0_x R6MC_C0_y R6SB_C1_u
 R6SB_C1_x R6SB_C1_y R6MC_C1_u R6MC_C1_x R6MC_C1_y R6SB_C2_u R6SB_C2_x
 R6SB_C2_y R6MC_C2_u R6MC_C2_x R6MC_C2_y R6SB_C3_u R6SB_C3_x R6SB_C3_y
 R6MC_C3_u R6MC_C3_x R6MC_C3_y
Generals
 Match_C0 Match_C1 Match_C2 Match_C3 Final_b Final_r Match Obj
General Constraints
 GC0: R0[0,0]_g = AND ( R0[0,0]_b , R0[0,0]_r )
 GC1: R0[0,1]_g = AND ( R0[0,1]_b , R0[0,1]_r )
 GC2: R0[0,2]_g = AND ( R0[0,2]_b , R0[0,2]_r )
 GC3: R0[0,3]_g = AND ( R0[0,3]_b , R0[0,3]_r )
 GC4: R0[1,0]_g = AND ( R0[1,0]_b , R0[1,0]_r )
 GC5: R0[1,1]_g = AND ( R0[1,1]_b , R0[1,1]_r )
 GC6: R0[1,2]_g = AND ( R0[1,2]_b , R0[1,2]_r )
 GC7: R0[1,3]_g = AND ( R0[1,3]_b , R0[1,3]_r )
 GC8: R0[2,0]_g = AND ( R0[2,0]_b , R0[2,0]_r )
 GC9: R0[2,1]_g = AND ( R0[2,1]_b , R0[2,1]_r )
 GC10: R0[2,2]_g = AND ( R0[2,2]_b , R0[2,2]_r )
 GC11: R0[2,3]_g = AND ( R0[2,3]_b , R0[2,3]_r )
 GC12: R0[3,0]_g = AND ( R0[3,0]_b , R0[3,0]_r )
 GC13: R0[3,1]_g = AND ( R0[3,1]_b , R0[3,1]_r )
 GC14: R0[3,2]_g = AND ( R0[3,2]_b , R0[3,2]_r )
 GC15: R0[3,3]_g = AND ( R0[3,3]_b , R0[3,3]_r )
 GC16: R1[0,0]_g = AND ( R1[0,0]_b , R1[0,0]_r )
 GC17: R1[0,1]_g = AND ( R1[0,1]_b , R1[0,1]_r )
 GC18: R1[0,2]_g = AND ( R1[0,2]_b , R1[0,2]_r )
 GC19: R1[0,3]_g = AND ( R1[0,3]_b , R1[0,3]_r )
 GC20: R1[1,0]_g = AND ( R1[1,0]_b , R1[1,0]_r )
 GC21: R1[1,1]_g = AND ( R1[1,1]_b , R1[1,1]_r )
 GC22: R1[1,2]_g = AND ( R1[1,2]_b , R1[1,2]_r )
 GC23: R1[1,3]_g = AND ( R1[1,3]_b , R1[1,3]_r )
 GC24: R1[2,0]_g = AND ( R1[2,0]_b , R1[2,0]_r )
 GC25: R1[2,1]_g = AND ( R1[2,1]_b , R1[2,1]_r )
 GC26: R1[2,2]_g = AND ( R1[2,2]_b , R1[2,2]_r )
 GC27: R1[2,3]_g = AND ( R1[2,3]_b , R1[2,3]_r )
 GC28: R1[3,0]_g = AND ( R1[3,0]_b , R1[3,0]_r )
 GC29: R1[3,1]_g = AND ( R1[3,1]_b , R1[3,1]_r )
 GC30: R1[3,2]_g = AND ( R1[3,2]_b , R1[3,2]_r )
 GC31: R1[3,3]_g = AND ( R1[3,3]_b , R1[3,3]_r )
 GC32: R2[0,0]_g = AND ( R2[0,0]_b , R2[0,0]_r )
 GC33: R2[0,1]_g = AND ( R2[0,1]_b , R2[0,1]_r )
 GC34: R2[0,2]_g = AND ( R2[0,2]_b , R2[0,2]_r )
 GC35: R2[0,3]_g = AND ( R2[0,3]_b , R2[0,3]_r )
 GC36: R2[1,0]_g = AND ( R2[1,0]_b , R2[1,0]_r )
 GC37: R2[1,1]_g = AND ( R2[1,1]_b , R2[1,1]_r )
 GC38: R2[1,2]_g = AND ( R2[1,2]_b , R2[1,2]_r )
 GC39: R2[1,3]_g = AND ( R2[1,3]_b , R2[1,3]_r )
 GC40: R2[2,0]_g = AND ( R2[2,0]_b , R2[2,0]_r )
 GC41: R2[2,1]_g = AND ( R2[2,1]_b , R2[2,1]_r )
 GC42: R2[2,2]_g = AND ( R2[2,2]_b , R2[2,2]_r )
 GC43: R2[2,3]_g = AND ( R2[2,3]_b , R2[2,3]_r )
 GC44: R2[3,0]_g = AND ( R2[3,0]_b , R2[3,0]_r )
 GC45: R2[3,1]_g = AND ( R2[3,1]_b , R2[3,1]_r )
 GC46: R2[3,2]_g = AND ( R2[3,2]_b , R2[3,2]_r )
 GC47: R2[3,3]_g = AND ( R2[3,3]_b , R2[3,3]_r )
 GC48: R3[0,0]_g = AND ( R3[0,0]_b , R3[0,0]_r )
 GC49: R3[0,1]_g = AND ( R3[0,1]_b , R3[0,1]_r )
 GC50: R3[0,2]_g = AND ( R3[0,2]_b , R3[0,2]_r )
 GC51: R3[0,3]_g = AND ( R3[0,3]_b , R3[0,3]_r )
 GC52: R3[1,0]_g = AND ( R3[1,0]_b , R3[1,0]_r )
 GC53: R3[1,1]_g = AND ( R3[1,1]_b , R3[1,1]_r )
 GC54: R3[1,2]_g = AND ( R3[1,2]_b , R3[1,2]_r )
 GC55: R3[1,3]_g = AND ( R3[1,3]_b , R3[1,3]_r )
 GC56: R3[2,0]_g = AND ( R3[2,0]_b , R3[2,0]_r )
 GC57: R3[2,1]_g = AND ( R3[2,1]_b , R3[2,1]_r )
 GC58: R3[2,2]_g = AND ( R3[2,2]_b , R3[2,2]_r )
 GC59: R3[2,3]_g = AND ( R3[2,3]_b , R3[2,3]_r )
 GC60: R3[3,0]_g = AND ( R3[3,0]_b , R3[3,0]_r )
 GC61: R3[3,1]_g = AND ( R3[3,1]_b , R3[3,1]_r )
 GC62: R3[3,2]_g = AND ( R3[3,2]_b , R3[3,2]_r )
 GC63: R3[3,3]_g = AND ( R3[3,3]_b , R3[3,3]_r )
 GC64: R4[0,0]_g = AND ( R4[0,0]_b , R4[0,0]_r )
 GC65: R4[0,1]_g = AND ( R4[0,1]_b , R4[0,1]_r )
 GC66: R4[0,2]_g = AND ( R4[0,2]_b , R4[0,2]_r )
 GC67: R4[0,3]_g = AND ( R4[0,3]_b , R4[0,3]_r )
 GC68: R4[1,0]_g = AND ( R4[1,0]_b , R4[1,0]_r )
 GC69: R4[1,1]_g = AND ( R4[1,1]_b , R4[1,1]_r )
 GC70: R4[1,2]_g = AND ( R4[1,2]_b , R4[1,2]_r )
 GC71: R4[1,3]_g = AND ( R4[1,3]_b , R4[1,3]_r )
 GC72: R4[2,0]_g = AND ( R4[2,0]_b , R4[2,0]_r )
 GC73: R4[2,1]_g = AND ( R4[2,1]_b , R4[2,1]_r )
 GC74: R4[2,2]_g = AND ( R4[2,2]_b , R4[2,2]_r )
 GC75: R4[2,3]_g = AND ( R4[2,3]_b , R4[2,3]_r )
 GC76: R4[3,0]_g = AND ( R4[3,0]_b , R4[3,0]_r )
 GC77: R4[3,1]_g = AND ( R4[3,1]_b , R4[3,1]_r )
 GC78: R4[3,2]_g = AND ( R4[3,2]_b , R4[3,2]_r )
 GC79: R4[3,3]_g = AND ( R4[3,3]_b , R4[3,3]_r )
 GC80: R5[0,0]_g = AND ( R5[0,0]_b , R5[0,0]_r )
 GC81: R5[0,1]_g = AND ( R5[0,1]_b , R5[0,1]_r )
 GC82: R5[0,2]_g = AND ( R5[0,2]_b , R5[0,2]_r )
 GC83: R5[0,3]_g = AND ( R5[0,3]_b , R5[0,3]_r )
 GC84: R5[1,0]_g = AND ( R5[1,0]_b , R5[1,0]_r )
 GC85: R5[1,1]_g = AND ( R5[1,1]_b , R5[1,1]_r )
 GC86: R5[1,2]_g = AND ( R5[1,2]_b , R5[1,2]_r )
 GC87: R5[1,3]_g = AND ( R5[1,3]_b , R5[1,3]_r )
 GC88: R5[2,0]_g = AND ( R5[2,0]_b , R5[2,0]_r )
 GC89: R5[2,1]_g = AND ( R5[2,1]_b , R5[2,1]_r )
 GC90: R5[2,2]_g = AND ( R5[2,2]_b , R5[2,2]_r )
 GC91: R5[2,3]_g = AND ( R5[2,3]_b , R5[2,3]_r )
 GC92: R5[3,0]_g = AND ( R5[3,0]_b , R5[3,0]_r )
 GC93: R5[3,1]_g = AND ( R5[3,1]_b , R5[3,1]_r )
 GC94: R5[3,2]_g = AND ( R5[3,2]_b , R5[3,2]_r )
 GC95: R5[3,3]_g = AND ( R5[3,3]_b , R5[3,3]_r )
 GC96: R6[0,0]_g = AND ( R6[0,0]_b , R6[0,0]_r )
 GC97: R6[0,1]_g = AND ( R6[0,1]_b , R6[0,1]_r )
 GC98: R6[0,2]_g = AND ( R6[0,2]_b , R6[0,2]_r )
 GC99: R6[0,3]_g = AND ( R6[0,3]_b , R6[0,3]_r )
 GC100: R6[1,0]_g = AND ( R6[1,0]_b , R6[1,0]_r )
 GC101: R6[1,1]_g = AND ( R6[1,1]_b , R6[1,1]_r )
 GC102: R6[1,2]_g = AND ( R6[1,2]_b , R6[1,2]_r )
 GC103: R6[1,3]_g = AND ( R6[1,3]_b , R6[1,3]_r )
 GC104: R6[2,0]_g = AND ( R6[2,0]_b , R6[2,0]_r )
 GC105: R6[2,1]_g = AND ( R6[2,1]_b , R6[2,1]_r )
 GC106: R6[2,2]_g = AND ( R6[2,2]_b , R6[2,2]_r )
 GC107: R6[2,3]_g = AND ( R6[2,3]_b , R6[2,3]_r )
 GC108: R6[3,0]_g = AND ( R6[3,0]_b , R6[3,0]_r )
 GC109: R6[3,1]_g = AND ( R6[3,1]_b , R6[3,1]_r )
 GC110: R6[3,2]_g = AND ( R6[3,2]_b , R6[3,2]_r )
 GC111: R6[3,3]_g = AND ( R6[3,3]_b , R6[3,3]_r )
End
